66242
1 1 1 0 1 1 0 0 1 0 0 1 0 0 1 0 0 0 0 1 0 1 0 0 0 0 0 0 1 0 
14 2 0 21 11 14 2 21 1 14 1 21 4 1 8 14 5 14 0 21 2 2 2 1 28 1 14 4 28 5 21 19 8 28 0 1 11 8 5 21 11 1 11 4 8 4 0 21 4 4 5 4 1 4 4 14 8 4 4 28 11 21 11 5 8 4 21 14 5 5 0 28 5 28 11 5 5 8 1 21 1 5 0 28 28 1 28 2 0 11 21 28 14 1 14 2 11 11 14 5 11 8 11 28 0 8 28 2 19 28 14 28 5 11 14 5 2 8 28 2 8 4 0 4 0 1 1 21 8 14 21 2 1 19 14 1 2 1 28 5 5 0 0 4 11 0 21 0 0 8 5 4 1 2 8 11 2 21 8 8 8 1 4 5 28 11 14 4 0 0 21 8 5 8 0 2 0 14 8 28 11 21 2 0 21 11 14 28 0 2 21 2 28 1 28 21 11 2 28 14 
